100	5
25	1000
10
7
13
19
26
3
5
9
16
16
12
19
23
20
8
19
2
12
17
9
11
18
29
3
6
17
16
16
9
21
27
23
11
14
8
5
8
16
31
9
5
5
7
18
16
1
27
36
30
13
10
9
14
18
2
6
7
18
28
3
13
19
10
9
20
25
25
36
6
5
15
25
9
8
18
13
14
3
23
6
26
16
11
7
41
35
26
9
15
3
1
2
22
27
20
11
12
10
9
17
35	35	0	1000	0	0
41	49	0	974	10	1
35	17	0	972	10	2
55	45	0	967	10	3
55	20	678	801	10	1
15	30	0	969	10	1
25	30	415	514	10	1
20	50	0	968	10	2
10	43	404	481	10	1
55	60	400	497	10	1
30	60	577	632	10	1
20	65	206	325	10	1
50	35	0	975	10	2
30	25	690	827	10	1
15	10	0	957	10	2
30	5	175	300	10	3
10	20	0	960	10	3
5	30	733	870	10	2
20	40	0	974	10	3
15	60	0	957	10	1
45	65	0	958	10	2
45	20	0	971	10	2
45	10	409	494	10	3
55	5	206	325	10	1
65	35	0	960	10	3
65	20	817	956	10	1
45	30	0	978	10	1
35	40	104	255	10	3
41	37	0	983	10	3
64	42	0	960	10	2
40	60	259	354	10	3
31	52	0	972	10	1
35	69	0	956	10	1
53	52	45	200	10	1
65	55	0	953	10	3
63	65	686	813	10	3
2	60	41	208	10	2
20	20	0	968	10	3
5	5	302	405	10	1
60	12	33	224	10	3
40	25	360	437	10	2
42	7	396	511	10	1
24	12	25	172	10	3
23	3	0	955	10	1
11	14	233	340	10	1
6	38	29	189	10	2
2	48	0	954	10	2
8	56	0	955	10	2
13	52	0	962	10	2
6	68	501	540	10	1
47	47	0	973	10	3
49	58	0	963	10	1
27	43	0	978	10	1
37	31	414	489	10	3
57	29	0	967	10	2
63	23	620	739	10	3
53	12	585	692	10	1
32	12	0	966	10	1
36	26	849	980	10	2
21	24	0	972	10	3
17	34	0	971	10	2
12	24	0	964	10	3
24	58	163	302	10	3
27	69	0	955	10	1
15	77	214	333	10	2
62	77	49	188	10	3
49	73	592	693	10	1
67	5	294	401	10	3
56	39	637	752	10	2
37	47	162	293	10	1
37	56	788	968	10	1
57	68	0	950	10	1
47	16	0	967	10	1
44	17	0	969	10	1
46	13	681	802	10	1
49	11	0	962	10	3
49	42	290	373	10	2
53	43	817	952	10	3
61	52	384	499	10	1
57	48	388	465	10	3
56	37	839	968	10	3
55	54	0	962	10	3
15	47	0	966	10	3
14	37	0	968	10	3
11	31	436	511	10	1
16	22	0	966	10	1
4	18	0	954	10	1
28	18	420	447	10	3
26	52	279	388	10	1
26	35	0	981	10	3
31	67	0	957	10	2
15	19	0	964	10	3
22	22	18	181	10	2
18	24	811	969	10	1
26	27	0	977	10	3
25	24	0	975	10	3
22	27	0	974	10	2
25	21	0	972	10	2
19	21	0	968	10	3
20	26	333	432	10	1
18	18	798	965	10	2
59	73	0	1000	5	4
40	4	0	1000	5	4
35	52	0	1000	5	4
38	43	0	1000	5	4
59	36	0	1000	5	4
0	0	0	0	0	
0	1	0	0	0	
0	0	0	0	1	
0	0	0	0	0	
0	0	0	0	0	
0	0	0	0	0	
0	0	1	0	0	
0	0	0	0	0	
0	0	0	0	0	
0	0	0	0	0	
0	0	0	0	0	
0	0	0	0	1	
0	0	0	0	0	
0	1	0	0	0	
0	1	0	0	0	
0	1	0	0	0	
0	0	0	1	0	
0	0	0	1	0	
0	0	0	0	0	
1	0	0	0	0	
0	1	0	0	0	
0	1	0	0	0	
0	0	0	0	0	
0	0	0	0	1	
0	0	0	0	0	
0	0	0	0	0	
0	0	0	1	0	
0	0	0	1	0	
0	0	0	0	1	
0	0	1	0	0	
0	0	0	0	0	
0	0	0	0	0	
0	0	0	0	0	
1	0	0	0	0	
1	0	0	0	0	
0	0	1	0	0	
0	1	0	0	0	
0	0	0	0	0	
0	1	0	0	0	
0	0	0	1	0	
0	0	0	0	0	
0	1	0	0	0	
0	0	0	0	0	
0	0	0	0	0	
0	0	1	0	0	
0	0	1	0	0	
0	0	1	0	0	
0	0	1	0	0	
0	0	0	0	0	
0	0	0	1	0	
0	0	0	0	0	
0	0	0	0	0	
0	0	0	1	0	
0	0	0	0	1	
0	0	0	0	1	
0	0	0	0	0	
0	0	0	0	0	
0	0	0	1	0	
0	0	0	1	0	
0	0	0	1	0	
0	0	0	1	0	
0	0	1	0	0	
0	0	0	0	0	
0	0	1	0	0	
1	0	0	0	0	
0	0	0	0	0	
0	1	0	0	0	
0	0	0	0	1	
0	0	0	0	0	
0	0	0	0	0	
0	0	0	0	0	
0	0	0	0	0	
0	0	0	0	0	
0	0	0	0	0	
0	1	0	0	0	
0	0	0	1	0	
0	0	0	0	1	
0	0	0	0	0	
0	0	0	0	1	
0	0	0	0	1	
0	0	0	0	1	
0	0	1	0	0	
0	0	0	1	0	
0	0	0	0	0	
0	0	0	0	0	
0	0	0	0	0	
0	1	0	0	0	
0	0	0	0	0	
0	0	0	1	0	
0	0	1	0	0	
0	1	0	0	0	
0	1	0	0	0	
0	0	0	0	0	
0	0	0	1	0	
0	0	0	1	0	
0	0	0	1	0	
0	1	0	0	0	
0	1	0	0	0	
0	0	0	0	0	
0	1	0	0	0	
